NAME : XML100_3223_22
DIMENSION : 101
NB_CLUSTERS : 3
CLUSTERING_ALG : KMedoids
CLUSTERING_PARAMS : k(2)
CLUSTERS
1 0
2 2 3 5 10 15 16 19 20 21 22 25 28 30 31 32 33 35 38 41 43 44 45 46 47 55 56 57 58 59 62 64 68 69 71 75 76 77 78 79 80 81 83 85 86 87 90 96 100
3 1 4 6 7 8 9 11 12 13 14 17 18 23 24 26 27 29 34 36 37 39 40 42 48 49 50 51 52 53 54 60 61 63 65 66 67 70 72 73 74 82 84 88 89 91 92 93 94 95 97 98 99
EOF